c (C) 2010. QUIROGA BELTRAN, Jose Luis. Bogota - Colombia.
c Date of birth: December 28 of 1970.
c Place of birth: Bogota - Colombia - Southamerica.
c Id (cedula): 79523732 de Bogota.
c tot_lits=148
p cnf 32 67 
-1 -5 0
-1 -6 0
-1 -7 0
-1 -8 0
-2 -9 0
-2 -10 0
-2 -11 0
-2 -12 0
-3 -13 0
-3 -14 0
-3 -15 0
-3 -16 0
-4 -17 0
-4 -18 0
-4 -19 0
-4 -20 0
-5 -6 0
-5 -7 0
-5 -8 0
-6 -7 0
-6 -8 0
-7 -8 0
-9 -10 0
-9 -11 0
-9 -12 0
-10 -11 0
-10 -12 0
-11 -12 0
-13 -14 0
-13 -15 0
-13 -16 0
-14 -15 0
-14 -16 0
-15 -16 0
-17 -18 0
-17 -19 0
-17 -20 0
-18 -19 0
-18 -20 0
-19 -20 0
-21 -24 0
-21 -25 0
-21 -26 0
-22 -27 0
-22 -28 0
-22 -29 0
-23 -30 0
-23 -31 0
-23 -32 0
-24 -25 0
-24 -26 0
-25 -26 0
-27 -28 0
-27 -29 0
-28 -29 0
-30 -31 0
-30 -32 0
-31 -32 0
1 2 3 4 0
5 9 13 17 0
6 10 14 18 0
7 11 15 19 0
8 12 16 20 0
21 22 23 0
24 27 30 0
25 28 31 0
26 29 32 0
